Route #1: 2 34 48 5
Route #2: 32 19 29 28 1
Route #3: 4 18 26 47 25 7 40
Route #4: 21 8 42 17 15
Route #5: 41 45 39 35 10
Route #6: 38 22 46 23 13 3
Route #7: 16 24 49 9 33 12 37 27
Route #8: 6 31 14 30 11 43 36 20 44
Cost 1348